31 31
19
3 3 25 10
3 4 15 27
3 5 28 8
3 6 21 25
3 7 28 24
3 8 28 0
3 9 18 22
3 10 25 0
3 11 24 13
3 12 21 13
3 13 15 14
3 14 15 0
3 22 18 0
3 31 12 0
4 3 27 21
4 7 24 24
4 8 27 13
4 13 21 0
12 31 0 0
